c status 69 1469274380994
c status 30 1469274380995
c status 25 1469274380999
s td 24 25 85
b 1 13 2 1
b 2 35 2 1 24
b 3 57 2 1 24 46
b 4 11 12 14 15 2 1
b 5 77 80 83 71 64 58 84 1 36 51
b 6 85 3 4 5 6 7 8 9 2 1 24 46 79
b 7 27 28 37 40 42 43 44 45 47 20 48 49 50 52 53 54 74 75 76 78 81 82
b 8 71 64 58 84 72 73 1 36 51
b 9 18 68 2 1 10 16 17 24 46 79
b 10 19 68 2 1 10 16 17 24 46 79
b 11 64 58 84 67 69 65 70 72 73 1 36 51 66
b 12 22 23 21 68 2 1 10 16 17 24 46 79 20
b 13 23 21 25 68 2 1 10 16 17 24 46 79 20
b 14 21 25 26 68 2 1 10 16 17 24 46 79 20
b 15 68 29 30 31 32 33 34 38 39 2 1 10 16 17 24 46 79 20
b 16 38 39 2 1 10 16 17 24 36 46 79 20
b 17 58 84 67 69 65 70 72 73 1 36 51 59 60 61 62 63 66
b 18 84 67 69 65 70 72 73 2 1 10 16 17 24 36 46 51 79 20 59 60 61 62 63 66
b 19 67 69 65 70 72 73 2 1 10 16 17 24 36 46 51 79 20 48 56 59 60 61 62 63 66
b 20 65 70 72 73 2 1 10 16 17 24 36 46 51 79 20 48 55 56 59 60 61 62 63 66
b 21 41 2 1 10 16 17 24 36 46 79 20
b 22 2 1 10 16 17 24 36 46 51 79 20 48 55 56 59 60 61 62 63 66 74
b 23 1 10 16 17 24 36 46 51 79 20 48 55 56 59 60 61 62 63 66 74 75 76 78 81 82
b 24 20 48 49 50 52 53 54 55 56 59 60 61 62 63 66 74 75 76 78 81 82
1 2
2 3
3 6
6 9
9 10
9 12
12 13
13 14
12 15
15 16
16 22
22 20
20 19
19 18
22 23
18 17
23 24
24 7
17 11
22 21
11 8
8 5
10 4
